p tw 146 160
1 2
2 59
3 14
4 5
5 6
6 7
6 11
7 8
8 9
9 10
10 103
11 12
12 13
13 15
14 25
15 16
16 103
17 18
18 19
19 20
20 21
21 22
21 27
22 23
23 24
24 26
25 36
26 103
27 28
28 29
29 30
30 31
31 103
32 33
33 34
34 35
35 37
36 47
37 38
38 39
39 40
40 41
41 103
42 43
43 44
43 49
44 45
45 46
46 48
47 54
48 52
49 50
50 51
51 52
52 53
54 55
54 42
55 56
56 57
57 58
58 60
59 70
60 61
61 62
62 63
62 75
63 64
63 69
64 65
65 66
66 67
67 68
68 103
69 71
70 81
71 72
72 73
73 74
74 103
75 76
76 77
76 82
77 78
78 79
79 80
80 85
81 92
82 83
83 84
84 85
85 86
86 87
87 88
88 89
88 99
89 90
90 91
90 115
91 93
92 103
93 94
93 130
94 95
95 96
95 145
96 97
97 98
97 17
98 32
99 100
100 101
101 102
102 104
103 114
104 105
104 109
105 106
106 107
107 108
108 103
109 110
110 111
111 112
112 113
113 103
114 125
115 116
116 117
117 118
118 119
119 120
119 124
120 121
121 122
122 123
123 103
124 126
125 136
126 127
127 128
128 129
129 103
130 131
131 132
132 133
133 134
134 135
134 140
135 137
136 3
137 138
138 139
139 103
140 141
141 142
142 143
143 144
144 103
145 146
146 4
